c Sudoku solution
p cnf 729 0
125 0
156 0
182 0
224 0
277 0
362 0
388 0
391 0
426 0
454 0
478 0
566 0
584 0
634 0
659 0
668 0
683 0
728 0
736 0
773 0
872 0
887 0
929 0
937 0
958 0
898 0
846 0
869 0
814 0
963 0
976 0
316 0
696 0
286 0
339 0
622 0
232 0
855 0
248 0
149 0
174 0
375 0
344 0
265 0
193 0
299 0
764 0
994 0
671 0
579 0
485 0
419 0
535 0
617 0
518 0
645 0
213 0
327 0
167 0
251 0
353 0
111 0
138 0
521 0
433 0
823 0
831 0
543 0
461 0
981 0
789 0
795 0
741 0
942 0
757 0
712 0
915 0
447 0
552 0
492 0
597 0
